!    ibrav = 0, nat = 64, ntyp = 1
CELL_PARAMETERS bohr
   20.6591056419132713    0.0000000000000000    0.0000000000000000
    0.0000000000000000   20.6591056419132713    0.0000000000000000
    0.0000000000000000    0.0000000000000000   20.6591056419132713
ATOMIC_SPECIES
 Si   28.08550   Si.pbe-n-kjpaw_psl.0.1.UPF
ATOMIC_POSITIONS crystal
 Si   0.4375000000000000  0.4375000000000000  0.4375000000000000
 Si   0.9375000000000000  0.4375000000000000  0.4375000000000000
 Si   0.4375000000000000  0.9375000000000000  0.4375000000000000
 Si   0.9375000000000000  0.9375000000000000  0.4375000000000000
 Si   0.4375000000000000  0.4375000000000000  0.9375000000000000
 Si   0.9375000000000000  0.4375000000000000  0.9375000000000000
 Si   0.4375000000000000  0.9375000000000000  0.9375000000000000
 Si   0.9375000000000000  0.9375000000000000  0.9375000000000000
 Si   0.4375000000000000  0.1875000000000000  0.1875000000000000
 Si   0.9375000000000000  0.1875000000000000  0.1875000000000000
 Si   0.4375000000000000  0.6875000000000000  0.1875000000000000
 Si   0.9375000000000000  0.6875000000000000  0.1875000000000000
 Si   0.4375000000000000  0.1875000000000000  0.6875000000000000
 Si   0.9375000000000000  0.1875000000000000  0.6875000000000000
 Si   0.4375000000000000  0.6875000000000000  0.6875000000000000
 Si   0.9375000000000000  0.6875000000000000  0.6875000000000000
 Si   0.1875000000000000  0.4375000000000000  0.1875000000000000
 Si   0.6875000000000000  0.4375000000000000  0.1875000000000000
 Si   0.1875000000000000  0.9375000000000000  0.1875000000000000
 Si   0.6875000000000000  0.9375000000000000  0.1875000000000000
 Si   0.1875000000000000  0.4375000000000000  0.6875000000000000
 Si   0.6875000000000000  0.4375000000000000  0.6875000000000000
 Si   0.1875000000000000  0.9375000000000000  0.6875000000000000
 Si   0.6875000000000000  0.9375000000000000  0.6875000000000000
 Si   0.1875000000000000  0.1875000000000000  0.4375000000000000
 Si   0.6875000000000000  0.1875000000000000  0.4375000000000000
 Si   0.1875000000000000  0.6875000000000000  0.4375000000000000
 Si   0.6875000000000000  0.6875000000000000  0.4375000000000000
 Si   0.1875000000000000  0.1875000000000000  0.9375000000000000
 Si   0.6875000000000000  0.1875000000000000  0.9375000000000000
 Si   0.1875000000000000  0.6875000000000000  0.9375000000000000
 Si   0.6875000000000000  0.6875000000000000  0.9375000000000000
 Si   0.0625000000000000  0.0625000000000000  0.0625000000000000
 Si   0.5625000000000000  0.0625000000000000  0.0625000000000000
 Si   0.0625000000000000  0.5625000000000000  0.0625000000000000
 Si   0.5625000000000000  0.5625000000000000  0.0625000000000000
 Si   0.0625000000000000  0.0625000000000000  0.5625000000000000
 Si   0.5625000000000000  0.0625000000000000  0.5625000000000000
 Si   0.0625000000000000  0.5625000000000000  0.5625000000000000
 Si   0.5625000000000000  0.5625000000000000  0.5625000000000000
 Si   0.0625000000000000  0.3125000000000000  0.3125000000000000
 Si   0.5625000000000000  0.3125000000000000  0.3125000000000000
 Si   0.0625000000000000  0.8125000000000000  0.3125000000000000
 Si   0.5625000000000000  0.8125000000000000  0.3125000000000000
 Si   0.0625000000000000  0.3125000000000000  0.8125000000000000
 Si   0.5625000000000000  0.3125000000000000  0.8125000000000000
 Si   0.0625000000000000  0.8125000000000000  0.8125000000000000
 Si   0.5625000000000000  0.8125000000000000  0.8125000000000000
 Si   0.3125000000000000  0.0625000000000000  0.3125000000000000
 Si   0.8125000000000000  0.0625000000000000  0.3125000000000000
 Si   0.3125000000000000  0.5625000000000000  0.3125000000000000
 Si   0.8125000000000000  0.5625000000000000  0.3125000000000000
 Si   0.3125000000000000  0.0625000000000000  0.8125000000000000
 Si   0.8125000000000000  0.0625000000000000  0.8125000000000000
 Si   0.3125000000000000  0.5625000000000000  0.8125000000000000
 Si   0.8125000000000000  0.5625000000000000  0.8125000000000000
 Si   0.3125000000000000  0.3125000000000000  0.0625000000000000
 Si   0.8125000000000000  0.3125000000000000  0.0625000000000000
 Si   0.3125000000000000  0.8125000000000000  0.0625000000000000
 Si   0.8125000000000000  0.8125000000000000  0.0625000000000000
 Si   0.3125000000000000  0.3125000000000000  0.5625000000000000
 Si   0.8125000000000000  0.3125000000000000  0.5625000000000000
 Si   0.3125000000000000  0.8125000000000000  0.5625000000000000
 Si   0.8125000000000000  0.8125000000000000  0.5625000000000000