 &control
    calculation = 'scf'
    pseudo_dir = '../../pseudo/'
    prefix = 'Si'
    tstress = .true.                     ! calculate stresses
    tprnfor = .true.                     ! calculate forces, set lda_plus_u_kind = 0

 /

 &system
    ibrav = 0
    nat = 64
    ntyp = 1
    occupations = 'smearing'
    smearing = 'gaussian'
    degauss = 0.01
    ecutwfc = 36.0
 /
 &electrons
    diagonalization = 'david'
    conv_thr = 1.0d-8
 /

K_POINTS automatic
 4 4 4  0 0 0


CELL_PARAMETERS bohr
   20.6591056419132713    0.0000000000000000    0.0000000000000000
    0.0000000000000000   20.6591056419132713    0.0000000000000000
    0.0000000000000000    0.0000000000000000   20.6591056419132713
ATOMIC_SPECIES
 Si   28.08550   Si.pbe-n-kjpaw_psl.0.1.UPF
ATOMIC_POSITIONS crystal
 Si   0.4384680961192929  0.4374999999999999  0.4374999999999999
 Si   0.9375000000000000  0.4374999999999999  0.4374999999999999
 Si   0.4374999999999999  0.9375000000000000  0.4374999999999999
 Si   0.9375000000000000  0.9375000000000000  0.4374999999999999
 Si   0.4374999999999999  0.4374999999999999  0.9375000000000000
 Si   0.9375000000000000  0.4374999999999999  0.9375000000000000
 Si   0.4374999999999999  0.9375000000000000  0.9375000000000000
 Si   0.9375000000000000  0.9375000000000000  0.9375000000000000
 Si   0.4374999999999999  0.1875000000000000  0.1875000000000000
 Si   0.9375000000000000  0.1875000000000000  0.1875000000000000
 Si   0.4374999999999999  0.6875000000000000  0.1875000000000000
 Si   0.9375000000000000  0.6875000000000000  0.1875000000000000
 Si   0.4374999999999999  0.1875000000000000  0.6875000000000000
 Si   0.9375000000000000  0.1875000000000000  0.6875000000000000
 Si   0.4374999999999999  0.6875000000000000  0.6875000000000000
 Si   0.9375000000000000  0.6875000000000000  0.6875000000000000
 Si   0.1875000000000000  0.4374999999999999  0.1875000000000000
 Si   0.6875000000000000  0.4374999999999999  0.1875000000000000
 Si   0.1875000000000000  0.9375000000000000  0.1875000000000000
 Si   0.6875000000000000  0.9375000000000000  0.1875000000000000
 Si   0.1875000000000000  0.4374999999999999  0.6875000000000000
 Si   0.6875000000000000  0.4374999999999999  0.6875000000000000
 Si   0.1875000000000000  0.9375000000000000  0.6875000000000000
 Si   0.6875000000000000  0.9375000000000000  0.6875000000000000
 Si   0.1875000000000000  0.1875000000000000  0.4374999999999999
 Si   0.6875000000000000  0.1875000000000000  0.4374999999999999
 Si   0.1875000000000000  0.6875000000000000  0.4374999999999999
 Si   0.6875000000000000  0.6875000000000000  0.4374999999999999
 Si   0.1875000000000000  0.1875000000000000  0.9375000000000000
 Si   0.6875000000000000  0.1875000000000000  0.9375000000000000
 Si   0.1875000000000000  0.6875000000000000  0.9375000000000000
 Si   0.6875000000000000  0.6875000000000000  0.9375000000000000
 Si   0.0625000000000000  0.0625000000000000  0.0625000000000000
 Si   0.5625000000000000  0.0625000000000000  0.0625000000000000
 Si   0.0625000000000000  0.5625000000000000  0.0625000000000000
 Si   0.5625000000000000  0.5625000000000000  0.0625000000000000
 Si   0.0625000000000000  0.0625000000000000  0.5625000000000000
 Si   0.5625000000000000  0.0625000000000000  0.5625000000000000
 Si   0.0625000000000000  0.5625000000000000  0.5625000000000000
 Si   0.5625000000000000  0.5625000000000000  0.5625000000000000
 Si   0.0625000000000000  0.3125000000000000  0.3125000000000000
 Si   0.5625000000000000  0.3125000000000000  0.3125000000000000
 Si   0.0625000000000000  0.8124999999999999  0.3125000000000000
 Si   0.5625000000000000  0.8124999999999999  0.3125000000000000
 Si   0.0625000000000000  0.3125000000000000  0.8124999999999999
 Si   0.5625000000000000  0.3125000000000000  0.8124999999999999
 Si   0.0625000000000000  0.8124999999999999  0.8124999999999999
 Si   0.5625000000000000  0.8124999999999999  0.8124999999999999
 Si   0.3125000000000000  0.0625000000000000  0.3125000000000000
 Si   0.8124999999999999  0.0625000000000000  0.3125000000000000
 Si   0.3125000000000000  0.5625000000000000  0.3125000000000000
 Si   0.8124999999999999  0.5625000000000000  0.3125000000000000
 Si   0.3125000000000000  0.0625000000000000  0.8124999999999999
 Si   0.8124999999999999  0.0625000000000000  0.8124999999999999
 Si   0.3125000000000000  0.5625000000000000  0.8124999999999999
 Si   0.8124999999999999  0.5625000000000000  0.8124999999999999
 Si   0.3125000000000000  0.3125000000000000  0.0625000000000000
 Si   0.8124999999999999  0.3125000000000000  0.0625000000000000
 Si   0.3125000000000000  0.8124999999999999  0.0625000000000000
 Si   0.8124999999999999  0.8124999999999999  0.0625000000000000
 Si   0.3125000000000000  0.3125000000000000  0.5625000000000000
 Si   0.8124999999999999  0.3125000000000000  0.5625000000000000
 Si   0.3125000000000000  0.8124999999999999  0.5625000000000000
 Si   0.8124999999999999  0.8124999999999999  0.5625000000000000